(set-info :smt-lib-version 2.7)
(set-logic ALL)
(set-info :source |
Generated on: 2026-06-22
Generator: pog2smtlib-2.7 github.com/CLEARSY/pog2smtlib-2.7 (-l HO_ALL -rpX)
Application: Discharging a proof obligation generated by aTelierB from an anonymized B machine
Target solver: CVC5 (--mbqi --enum-inst)
Time limit: 1200.0
|)
(set-info :license "www.gnu.org/licenses/gpl-3.0.en.html")
(set-info :category "industrial")
(set-info :status unsat)

(set-option :print-success false)
(define-sort |Z| () Int)
(declare-sort P 1)
(declare-datatype C (par (T1 T2) ((maplet (fst T1) (snd T2)))))
(define-sort |POW Z| () (P |Z|))
(define-sort |(Z x Z)| () (C |Z| |Z|))
(define-sort |POW POW Z| () (P |POW Z|))
(declare-fun |set.in Z| (|Z| |POW Z|) Bool)
(define-sort |((Z x Z) x POW Z)| () (C |(Z x Z)| |POW Z|))
(define-sort |POW (Z x Z)| () (P |(Z x Z)|))
(define-sort |((Z x Z) x Z)| () (C |(Z x Z)| |Z|))
(declare-fun |set.in POW Z| (|POW Z| |POW POW Z|) Bool)
(define-sort |POW ((Z x Z) x POW Z)| () (P |((Z x Z) x POW Z)|))
(declare-fun |set.in (Z x Z)| (|(Z x Z)| |POW (Z x Z)|) Bool)
(define-sort |POW ((Z x Z) x Z)| () (P |((Z x Z) x Z)|))
(declare-fun |set.in ((Z x Z) x POW Z)| (|((Z x Z) x POW Z)| |POW ((Z x Z) x POW Z)|) Bool)
(define-sort |POW POW ((Z x Z) x POW Z)| () (P |POW ((Z x Z) x POW Z)|))
(declare-fun |set.in ((Z x Z) x Z)| (|((Z x Z) x Z)| |POW ((Z x Z) x Z)|) Bool)
(define-sort |POW POW ((Z x Z) x Z)| () (P |POW ((Z x Z) x Z)|))
(declare-fun |set.subseteq ((Z x Z) x POW Z)| (|POW ((Z x Z) x POW Z)| |POW ((Z x Z) x POW Z)|) Bool)
(assert (!
    (forall ((s |POW ((Z x Z) x POW Z)|) (t |POW ((Z x Z) x POW Z)|))
      (=
        (|set.subseteq ((Z x Z) x POW Z)| s t)
        (forall ((e |((Z x Z) x POW Z)|)) (=> (|set.in ((Z x Z) x POW Z)| e s) (|set.in ((Z x Z) x POW Z)| e t)))
      )
    )
    :named |ax.set.subseteq ((Z x Z) x POW Z)|))
(declare-fun |set.in POW ((Z x Z) x POW Z)| (|POW ((Z x Z) x POW Z)| |POW POW ((Z x Z) x POW Z)|) Bool)
(declare-fun |set.subseteq ((Z x Z) x Z)| (|POW ((Z x Z) x Z)| |POW ((Z x Z) x Z)|) Bool)
(assert (!
    (forall ((s |POW ((Z x Z) x Z)|) (t |POW ((Z x Z) x Z)|))
      (=
        (|set.subseteq ((Z x Z) x Z)| s t)
        (forall ((e |((Z x Z) x Z)|)) (=> (|set.in ((Z x Z) x Z)| e s) (|set.in ((Z x Z) x Z)| e t)))
      )
    )
    :named |ax.set.subseteq ((Z x Z) x Z)|))
(declare-fun |set.in POW ((Z x Z) x Z)| (|POW ((Z x Z) x Z)| |POW POW ((Z x Z) x Z)|) Bool)
(declare-fun |sub-sets ((Z x Z) x POW Z)| (|POW ((Z x Z) x POW Z)|) |POW POW ((Z x Z) x POW Z)|)
(assert (!
  (forall ((s |POW ((Z x Z) x POW Z)|) (t |POW ((Z x Z) x POW Z)|))
    (=
      (|set.in POW ((Z x Z) x POW Z)| s (|sub-sets ((Z x Z) x POW Z)| t))
      (|set.subseteq ((Z x Z) x POW Z)| s t)))
  :named |ax.sub-sets ((Z x Z) x POW Z)|))
(declare-fun |set.product (Z x Z) POW Z| (|POW (Z x Z)| |POW POW Z|) |POW ((Z x Z) x POW Z)|)
(assert (!
  (forall ((s1 |POW (Z x Z)|) (s2 |POW POW Z|))
    (forall ((p |((Z x Z) x POW Z)|))
      (= (|set.in ((Z x Z) x POW Z)| p (|set.product (Z x Z) POW Z| s1 s2))
        (and (|set.in (Z x Z)| (fst p) s1) (|set.in POW Z| (snd p) s2)))))
  :named |ax.set.in.product.1 ((Z x Z) x POW Z)|))
(assert (!
  (forall ((s1 |POW (Z x Z)|) (s2 |POW POW Z|))
    (forall ((x1 |(Z x Z)|) (x2 |POW Z|))
      (= (|set.in ((Z x Z) x POW Z)| (maplet x1 x2) (|set.product (Z x Z) POW Z| s1 s2))
        (and (|set.in (Z x Z)| x1 s1) (|set.in POW Z| x2 s2)))))
  :named |ax.set.in.product.2 ((Z x Z) x POW Z)|))
(assert (!
  (forall ((s |POW Z|) (t |POW Z|))
    (=
      (= s t)
      (forall ((e |Z|)) (= (|set.in Z| e s) (|set.in Z| e t)))))
  :named |ax.set.eq Z|))
(declare-fun |sub-sets ((Z x Z) x Z)| (|POW ((Z x Z) x Z)|) |POW POW ((Z x Z) x Z)|)
(assert (!
  (forall ((s |POW ((Z x Z) x Z)|) (t |POW ((Z x Z) x Z)|))
    (=
      (|set.in POW ((Z x Z) x Z)| s (|sub-sets ((Z x Z) x Z)| t))
      (|set.subseteq ((Z x Z) x Z)| s t)))
  :named |ax.sub-sets ((Z x Z) x Z)|))
(declare-fun |set.product (Z x Z) Z| (|POW (Z x Z)| |POW Z|) |POW ((Z x Z) x Z)|)
(assert (!
  (forall ((s1 |POW (Z x Z)|) (s2 |POW Z|))
    (forall ((p |((Z x Z) x Z)|))
      (= (|set.in ((Z x Z) x Z)| p (|set.product (Z x Z) Z| s1 s2))
        (and (|set.in (Z x Z)| (fst p) s1) (|set.in Z| (snd p) s2)))))
  :named |ax.set.in.product.1 ((Z x Z) x Z)|))
(assert (!
  (forall ((s1 |POW (Z x Z)|) (s2 |POW Z|))
    (forall ((x1 |(Z x Z)|) (x2 |Z|))
      (= (|set.in ((Z x Z) x Z)| (maplet x1 x2) (|set.product (Z x Z) Z| s1 s2))
        (and (|set.in (Z x Z)| x1 s1) (|set.in Z| x2 s2)))))
  :named |ax.set.in.product.2 ((Z x Z) x Z)|))
(define-sort |POW POW (Z x Z)| () (P |POW (Z x Z)|))
(declare-fun |relations (Z x Z) POW Z| (|POW (Z x Z)| |POW POW Z|) |POW POW ((Z x Z) x POW Z)|)
(assert (!
  (forall ((X |POW (Z x Z)|) (Y |POW POW Z|))
    (= (|relations (Z x Z) POW Z| X Y)
       (|sub-sets ((Z x Z) x POW Z)| (|set.product (Z x Z) POW Z| X Y))))
    :named |def.relations ((Z x Z) x POW Z)|))
(declare-fun |functions (Z x Z) POW Z| (|POW (Z x Z)| |POW POW Z|) |POW POW ((Z x Z) x POW Z)|)
(assert (!
  (forall ((X |POW (Z x Z)|) (Y |POW POW Z|))
    (forall ((f |POW ((Z x Z) x POW Z)|))
      (= (|set.in POW ((Z x Z) x POW Z)| f (|functions (Z x Z) POW Z| X Y))
         (forall ((p |((Z x Z) x POW Z)|) (q |((Z x Z) x POW Z)|))
           (=> (and (|set.in ((Z x Z) x POW Z)| p f) (|set.in ((Z x Z) x POW Z)| q f) (= (fst p) (fst q)))
               (= (snd p) (snd q)))))))
:named |ax:set.in.functions ((Z x Z) x POW Z)|))
(declare-fun |rel.domain (Z x Z) POW Z| (|POW ((Z x Z) x POW Z)|) |POW (Z x Z)|)
(assert (!
  (forall ((r |POW ((Z x Z) x POW Z)|) (e |(Z x Z)|))
    (= (|set.in (Z x Z)| e (|rel.domain (Z x Z) POW Z| r))
       (exists ((y |POW Z|)) (|set.in ((Z x Z) x POW Z)| (maplet e y) r))))
  :named |ax:set.in.domain ((Z x Z) x POW Z)|))
(declare-fun |functions (Z x Z) Z| (|POW (Z x Z)| |POW Z|) |POW POW ((Z x Z) x Z)|)
(assert (!
  (forall ((X |POW (Z x Z)|) (Y |POW Z|))
    (forall ((f |POW ((Z x Z) x Z)|))
      (= (|set.in POW ((Z x Z) x Z)| f (|functions (Z x Z) Z| X Y))
         (forall ((p |((Z x Z) x Z)|) (q |((Z x Z) x Z)|))
           (=> (and (|set.in ((Z x Z) x Z)| p f) (|set.in ((Z x Z) x Z)| q f) (= (fst p) (fst q)))
               (= (snd p) (snd q)))))))
:named |ax:set.in.functions ((Z x Z) x Z)|))
(declare-fun |relations (Z x Z) Z| (|POW (Z x Z)| |POW Z|) |POW POW ((Z x Z) x Z)|)
(assert (!
  (forall ((X |POW (Z x Z)|) (Y |POW Z|))
    (= (|relations (Z x Z) Z| X Y)
       (|sub-sets ((Z x Z) x Z)| (|set.product (Z x Z) Z| X Y))))
    :named |def.relations ((Z x Z) x Z)|))
(declare-fun |rel.domain (Z x Z) Z| (|POW ((Z x Z) x Z)|) |POW (Z x Z)|)
(assert (!
  (forall ((r |POW ((Z x Z) x Z)|) (e |(Z x Z)|))
    (= (|set.in (Z x Z)| e (|rel.domain (Z x Z) Z| r))
       (exists ((y |Z|)) (|set.in ((Z x Z) x Z)| (maplet e y) r))))
  :named |ax:set.in.domain ((Z x Z) x Z)|))
(declare-fun |set.subseteq (Z x Z)| (|POW (Z x Z)| |POW (Z x Z)|) Bool)
(assert (!
    (forall ((s |POW (Z x Z)|) (t |POW (Z x Z)|))
      (=
        (|set.subseteq (Z x Z)| s t)
        (forall ((e |(Z x Z)|)) (=> (|set.in (Z x Z)| e s) (|set.in (Z x Z)| e t)))
      )
    )
    :named |ax.set.subseteq (Z x Z)|))
(declare-fun |set.in POW (Z x Z)| (|POW (Z x Z)| |POW POW (Z x Z)|) Bool)
(declare-fun |functions.partial (Z x Z) POW Z| (|POW (Z x Z)| |POW POW Z|) |POW POW ((Z x Z) x POW Z)|)
(assert (!
  (forall ((e1 |POW (Z x Z)|) (e2 |POW POW Z|))
    (forall ((f |POW ((Z x Z) x POW Z)|))
      (= (|set.in POW ((Z x Z) x POW Z)| f (|functions.partial (Z x Z) POW Z| e1 e2))
         (and (|set.in POW ((Z x Z) x POW Z)| f (|relations (Z x Z) POW Z| e1 e2))
              (|set.in POW ((Z x Z) x POW Z)| f (|functions (Z x Z) POW Z| e1 e2))))))
  :named |ax:def.pfun ((Z x Z) x POW Z)|)
)
(declare-fun |relations.total (Z x Z) POW Z| (|POW (Z x Z)| |POW POW Z|) |POW POW ((Z x Z) x POW Z)|)
(assert (!
  (forall ((X |POW (Z x Z)|) (Y |POW POW Z|))
    (forall ((f |POW ((Z x Z) x POW Z)|))
      (= (|set.in POW ((Z x Z) x POW Z)| f (|relations.total (Z x Z) POW Z| X Y))
         (= (|rel.domain (Z x Z) POW Z| f) X))))
 :named |ax:set.in.relations.total ((Z x Z) x POW Z)|))
(declare-fun |set.subseteq Z| (|POW Z| |POW Z|) Bool)
(assert (!
    (forall ((s |POW Z|) (t |POW Z|))
      (=
        (|set.subseteq Z| s t)
        (forall ((e |Z|)) (=> (|set.in Z| e s) (|set.in Z| e t)))
      )
    )
    :named |ax.set.subseteq Z|))
(declare-fun |functions.partial (Z x Z) Z| (|POW (Z x Z)| |POW Z|) |POW POW ((Z x Z) x Z)|)
(assert (!
  (forall ((e1 |POW (Z x Z)|) (e2 |POW Z|))
    (forall ((f |POW ((Z x Z) x Z)|))
      (= (|set.in POW ((Z x Z) x Z)| f (|functions.partial (Z x Z) Z| e1 e2))
         (and (|set.in POW ((Z x Z) x Z)| f (|relations (Z x Z) Z| e1 e2))
              (|set.in POW ((Z x Z) x Z)| f (|functions (Z x Z) Z| e1 e2))))))
  :named |ax:def.pfun ((Z x Z) x Z)|)
)
(declare-fun |relations.total (Z x Z) Z| (|POW (Z x Z)| |POW Z|) |POW POW ((Z x Z) x Z)|)
(assert (!
  (forall ((X |POW (Z x Z)|) (Y |POW Z|))
    (forall ((f |POW ((Z x Z) x Z)|))
      (= (|set.in POW ((Z x Z) x Z)| f (|relations.total (Z x Z) Z| X Y))
         (= (|rel.domain (Z x Z) Z| f) X))))
 :named |ax:set.in.relations.total ((Z x Z) x Z)|))
(define-const MAXINT |Z| 2147483647)
(define-const MININT |Z| (- 2147483648))
(declare-fun |sub-sets (Z x Z)| (|POW (Z x Z)|) |POW POW (Z x Z)|)
(assert (!
  (forall ((s |POW (Z x Z)|) (t |POW (Z x Z)|))
    (=
      (|set.in POW (Z x Z)| s (|sub-sets (Z x Z)| t))
      (|set.subseteq (Z x Z)| s t)))
  :named |ax.sub-sets (Z x Z)|))
(declare-fun |set.product Z Z| (|POW Z| |POW Z|) |POW (Z x Z)|)
(assert (!
  (forall ((s1 |POW Z|) (s2 |POW Z|))
    (forall ((p |(Z x Z)|))
      (= (|set.in (Z x Z)| p (|set.product Z Z| s1 s2))
        (and (|set.in Z| (fst p) s1) (|set.in Z| (snd p) s2)))))
  :named |ax.set.in.product.1 (Z x Z)|))
(assert (!
  (forall ((s1 |POW Z|) (s2 |POW Z|))
    (forall ((x1 |Z|) (x2 |Z|))
      (= (|set.in (Z x Z)| (maplet x1 x2) (|set.product Z Z| s1 s2))
        (and (|set.in Z| x1 s1) (|set.in Z| x2 s2)))))
  :named |ax.set.in.product.2 (Z x Z)|))
(define-sort |? (Z x Z)| () (-> |(Z x Z)| Bool))
(declare-const |set.intent (Z x Z)| (-> |? (Z x Z)| |POW (Z x Z)|))
(assert (!
  (forall ((p |? (Z x Z)|))
    (forall ((x |(Z x Z)|))
      (= (|set.in (Z x Z)| x (|set.intent (Z x Z)| p))
         (@ p x))))
  :named |ax:set.in.intent (Z x Z)|))
(declare-const s13 |Z|)
(declare-const s56$1 |Z|)
(declare-const s43 |POW ((Z x Z) x Z)|)
(declare-const s45 |POW ((Z x Z) x POW Z)|)
(declare-const s42 |POW ((Z x Z) x Z)|)
(declare-const s26 |Z|)
(declare-const s12 |Z|)
(declare-const s25 |Z|)
(declare-const s40 |POW Z|)
(declare-const s88 |Z|)
(declare-const s27 |POW Z|)
(declare-const s53 |POW ((Z x Z) x Z)|)
(declare-const s46 |POW ((Z x Z) x POW Z)|)
(declare-const s41 |POW ((Z x Z) x Z)|)
(declare-const s50 |POW (Z x Z)|)
(declare-const s90 |Z|)
(declare-const s51 |POW ((Z x Z) x Z)|)
(declare-const s49 |POW (Z x Z)|)
(declare-const s44 |POW ((Z x Z) x POW Z)|)
(declare-const s57$1 |Z|)
(declare-const s24 |POW Z|)
(declare-const s89 |Z|)
(declare-const s47 |POW ((Z x Z) x POW Z)|)
(declare-const s22 |POW Z|)
(declare-const s23 |POW Z|)
(declare-const s48 |POW ((Z x Z) x POW Z)|)
(declare-const s52 |POW ((Z x Z) x Z)|)
(declare-const s58$1 |Z|)
(declare-const s54 |POW ((Z x Z) x Z)|)
(declare-const s37 |POW ((Z x Z) x Z)|)
(declare-const s55$1 |Z|)
(declare-fun |functions.total (Z x Z) POW Z| (|POW (Z x Z)| |POW POW Z|) |POW POW ((Z x Z) x POW Z)|)
(assert (!
  (forall ((e1 |POW (Z x Z)|) (e2 |POW POW Z|))
    (forall ((f |POW ((Z x Z) x POW Z)|))
      (= (|set.in POW ((Z x Z) x POW Z)| f (|functions.total (Z x Z) POW Z| e1 e2))
         (and (|set.in POW ((Z x Z) x POW Z)| f (|functions.partial (Z x Z) POW Z| e1 e2))
              (|set.in POW ((Z x Z) x POW Z)| f (|relations.total (Z x Z) POW Z| e1 e2))))))
  :named |ax:def.tfun ((Z x Z) x POW Z)|))
(declare-fun |sub-sets Z| (|POW Z|) |POW POW Z|)
(assert (!
  (forall ((s |POW Z|) (t |POW Z|))
    (=
      (|set.in POW Z| s (|sub-sets Z| t))
      (|set.subseteq Z| s t)))
  :named |ax.sub-sets Z|))
(declare-fun |functions.total (Z x Z) Z| (|POW (Z x Z)| |POW Z|) |POW POW ((Z x Z) x Z)|)
(assert (!
  (forall ((e1 |POW (Z x Z)|) (e2 |POW Z|))
    (forall ((f |POW ((Z x Z) x Z)|))
      (= (|set.in POW ((Z x Z) x Z)| f (|functions.total (Z x Z) Z| e1 e2))
         (and (|set.in POW ((Z x Z) x Z)| f (|functions.partial (Z x Z) Z| e1 e2))
              (|set.in POW ((Z x Z) x Z)| f (|relations.total (Z x Z) Z| e1 e2))))))
  :named |ax:def.tfun ((Z x Z) x Z)|))
(declare-const NAT |POW Z|)
(assert (!
  (forall ((e |Z|)) (= (|set.in Z| e NAT) (and (<= 0 e) (<= e MAXINT))))
  :named |ax.set.in.NAT|))
(declare-const INT |POW Z|)
(assert (!
  (forall ((e |Z|)) (= (|set.in Z| e INT) (and (<= MININT e) (<= e MAXINT))))
  :named |ax.set.in.INT|))
(declare-fun |relations Z Z| (|POW Z| |POW Z|) |POW POW (Z x Z)|)
(assert (!
  (forall ((X |POW Z|) (Y |POW Z|))
    (= (|relations Z Z| X Y)
       (|sub-sets (Z x Z)| (|set.product Z Z| X Y))))
    :named |def.relations (Z x Z)|))
(assert (!
  (forall ((s |POW (Z x Z)|) (t |POW (Z x Z)|))
    (=
      (= s t)
      (forall ((e |(Z x Z)|)) (= (|set.in (Z x Z)| e s) (|set.in (Z x Z)| e t)))))
  :named |ax.set.eq (Z x Z)|))
(declare-fun |fun.eval (Z x Z) POW Z| (|POW ((Z x Z) x POW Z)| |(Z x Z)|) |POW Z|)
 (assert (!
    (forall ((f |POW ((Z x Z) x POW Z)|)(x |(Z x Z)|))
        (|set.in ((Z x Z) x POW Z)| (maplet x (|fun.eval (Z x Z) POW Z| f x)) f))
    :named |ax.fun.eval ((Z x Z) x POW Z)|))
(define-sort |? ((Z x Z) x Z)| () (-> |((Z x Z) x Z)| Bool))
(declare-const |set.intent ((Z x Z) x Z)| (-> |? ((Z x Z) x Z)| |POW ((Z x Z) x Z)|))
(assert (!
  (forall ((p |? ((Z x Z) x Z)|))
    (forall ((x |((Z x Z) x Z)|))
      (= (|set.in ((Z x Z) x Z)| x (|set.intent ((Z x Z) x Z)| p))
         (@ p x))))
  :named |ax:set.in.intent ((Z x Z) x Z)|))
(declare-fun |set.lambda (Z x Z) POW Z| (|? (Z x Z)| (-> |(Z x Z)| |POW Z|)) |POW ((Z x Z) x POW Z)|)
(assert (!
  (forall ((P |? (Z x Z)|)(E (-> |(Z x Z)| |POW Z|)))
    (forall ((p |((Z x Z) x POW Z)|))
      (= (|set.in ((Z x Z) x POW Z)| p (|set.lambda (Z x Z) POW Z| P E))
         (and (@ P (fst p))
              (= (snd p) (@ E (fst p)))))))
    :named |ax.set.in.lambda (Z x Z) POW Z|))
(define-sort |? Z| () (-> |Z| Bool))
(declare-const |set.intent Z| (-> |? Z| |POW Z|))
(assert (!
  (forall ((p |? Z|))
    (forall ((x |Z|))
      (= (|set.in Z| x (|set.intent Z| p))
         (@ p x))))
  :named |ax:set.in.intent Z|))
(assert (!
  (forall ((s |POW ((Z x Z) x POW Z)|) (t |POW ((Z x Z) x POW Z)|))
    (=
      (= s t)
      (forall ((e |((Z x Z) x POW Z)|)) (= (|set.in ((Z x Z) x POW Z)| e s) (|set.in ((Z x Z) x POW Z)| e t)))))
  :named |ax.set.eq ((Z x Z) x POW Z)|))
(declare-fun |rel.overwrite (Z x Z) Z| (|POW ((Z x Z) x Z)| |POW ((Z x Z) x Z)|) |POW ((Z x Z) x Z)|)
(assert (!
  (forall ((r1 |POW ((Z x Z) x Z)|) (r2 |POW ((Z x Z) x Z)|))
    (forall ((x |((Z x Z) x Z)|))
      (= (|set.in ((Z x Z) x Z)| x (|rel.overwrite (Z x Z) Z| r1 r2))
         (or (and (|set.in ((Z x Z) x Z)| x r1)
                  (not (|set.in (Z x Z)| (fst x) (|rel.domain (Z x Z) Z| r1))))
             (|set.in ((Z x Z) x Z)| x r2)))))
  :named |ax:set.in.overwrite ((Z x Z) x Z)|))
(declare-fun |set.lambda (Z x Z) Z| (|? (Z x Z)| (-> |(Z x Z)| |Z|)) |POW ((Z x Z) x Z)|)
(assert (!
  (forall ((P |? (Z x Z)|)(E (-> |(Z x Z)| |Z|)))
    (forall ((p |((Z x Z) x Z)|))
      (= (|set.in ((Z x Z) x Z)| p (|set.lambda (Z x Z) Z| P E))
         (and (@ P (fst p))
              (= (snd p) (@ E (fst p)))))))
    :named |ax.set.in.lambda (Z x Z) Z|))
(assert (!
  (forall ((s |POW ((Z x Z) x Z)|) (t |POW ((Z x Z) x Z)|))
    (=
      (= s t)
      (forall ((e |((Z x Z) x Z)|)) (= (|set.in ((Z x Z) x Z)| e s) (|set.in ((Z x Z) x Z)| e t)))))
  :named |ax.set.eq ((Z x Z) x Z)|))
(declare-const NAT1 |POW Z|)
(assert (!
  (forall ((e |Z|)) (= (|set.in Z| e NAT1) (and (<= 1 e) (<= e MAXINT))))
  :named |ax.set.in.NAT1|))
(assert (!
  (|set.in Z| s88 s22)
  :named |Local_Hyp:0|))
(assert (!
  (|set.in Z| s88 s23)
  :named |Local_Hyp:1|))
(assert (!
  (|set.in Z| s89 s22)
  :named |Local_Hyp:2|))
(assert (!
  (|set.in Z| s89 s23)
  :named |Local_Hyp:3|))
(assert (!
  (|set.in Z| s90 s22)
  :named |Local_Hyp:4|))
(assert (!
  (|set.in Z| s90 s23)
  :named |Local_Hyp:5|))
(assert (!
  (>= (- s89 s88) 0)
  :named |Local_Hyp:6|))
(assert (!
  (not
  (<= s90 s89))
  :named |Local_Hyp:8|))
(assert (!
  (= s22 INT)
  :named |Define:ctx:25|))
(assert (!
  (= s23 NAT)
  :named |Define:ctx:26|))
(assert (!
  (|set.subseteq Z| s24 s23)
  :named |Define:ctx:28|))
(assert (!
  (|set.subseteq Z| s23 s22)
  :named |Define:ctx:29|))
(assert (!
  (|set.in Z| s25 s22)
  :named |Define:ctx:30|))
(assert (!
  (|set.in Z| s25 s23)
  :named |Define:ctx:31|))
(assert (!
  (|set.in Z| s26 s22)
  :named |Define:ctx:33|))
(assert (!
  (not
  (|set.in Z| s26 s23))
  :named |Define:ctx:34|))
(assert (!
  (|set.in POW ((Z x Z) x Z)| s41 (|functions.total (Z x Z) Z| (|set.product Z Z| s23 s23) s27))
  :named |Define:aprp:3|))
(assert (!
  (|set.in POW ((Z x Z) x Z)| s42 (|functions.partial (Z x Z) Z| (|set.product Z Z| s23 s27) s23))
  :named |Define:aprp:4|))
(assert (!
  (|set.in POW ((Z x Z) x Z)| s43 (|functions.total (Z x Z) Z| (|set.product Z Z| s23 s27) s23))
  :named |Define:aprp:5|))
(assert (!
  (|set.in POW ((Z x Z) x POW Z)| s44 (|functions.total (Z x Z) POW Z| (|set.product Z Z| s23 s27) (|sub-sets Z| s23)))
  :named |Define:aprp:6|))
(assert (!
  (|set.in POW ((Z x Z) x POW Z)| s45 (|functions.total (Z x Z) POW Z| (|set.product Z Z| s23 s23) (|sub-sets Z| s23)))
  :named |Define:aprp:7|))
(assert (!
  (|set.in POW ((Z x Z) x POW Z)| s46 (|functions.total (Z x Z) POW Z| (|set.product Z Z| s23 s23) (|sub-sets Z| s23)))
  :named |Define:aprp:8|))
(assert (!
  (|set.in POW ((Z x Z) x POW Z)| s47 (|functions.total (Z x Z) POW Z| (|set.product Z Z| s23 s23) (|sub-sets Z| s23)))
  :named |Define:aprp:9|))
(assert (!
  (|set.in POW ((Z x Z) x POW Z)| s48 (|functions.total (Z x Z) POW Z| (|set.product Z Z| s23 s23) (|sub-sets Z| s23)))
  :named |Define:aprp:10|))
(assert (!
  (|set.in POW (Z x Z)| s49 (|relations Z Z| s23 s23))
  :named |Define:aprp:11|))
(assert (!
  (|set.in POW (Z x Z)| s50 (|relations Z Z| s23 s23))
  :named |Define:aprp:12|))
(assert (!
  (|set.in POW ((Z x Z) x Z)| s51 (|relations (Z x Z) Z| (|set.product Z Z| s23 s27) s23))
  :named |Define:aprp:13|))
(assert (!
  (|set.in POW ((Z x Z) x Z)| s52 (|relations (Z x Z) Z| (|set.product Z Z| s23 s27) s23))
  :named |Define:aprp:14|))
(assert (!
  (|set.in POW ((Z x Z) x Z)| s53 (|relations (Z x Z) Z| (|set.product Z Z| s23 s27) s23))
  :named |Define:aprp:15|))
(assert (!
  (|set.in POW ((Z x Z) x Z)| s54 (|relations (Z x Z) Z| (|set.product Z Z| s23 s27) s23))
  :named |Define:aprp:16|))
(assert (!
  (= (|rel.domain (Z x Z) Z| s42) (|set.product Z Z| s23 NAT))
  :named |Define:aprp:17|))
(assert (!
  (= s41 (|rel.overwrite (Z x Z) Z| (|set.lambda (Z x Z) Z| (lambda ((_c0 |(Z x Z)|)) (and
  (|set.in Z| (fst _c0) s23)
  (|set.in Z| (snd _c0) s23)
  (>= (fst _c0) (snd _c0))))  (lambda ((_c0 |(Z x Z)|)) (- (fst _c0) (snd _c0)))) (|set.lambda (Z x Z) Z| (lambda ((_c0 |(Z x Z)|)) (and
  (|set.in Z| (fst _c0) s23)
  (|set.in Z| (snd _c0) s23)
  (< (fst _c0) (snd _c0))))  (lambda ((_c0 |(Z x Z)|)) (+ (- s12 (snd _c0)) (fst _c0))))))
  :named |Define:imlprp:2|))
(assert (!
  (= s42 (|rel.overwrite (Z x Z) Z| (|set.lambda (Z x Z) Z| (lambda ((_c0 |(Z x Z)|)) (and
  (|set.in Z| (fst _c0) s23)
  (|set.in Z| (snd _c0) s27)
  (>= (snd _c0) 0)
  (>= (- s12 (fst _c0)) (snd _c0))))  (lambda ((_c0 |(Z x Z)|)) (+ (fst _c0) (snd _c0)))) (|set.lambda (Z x Z) Z| (lambda ((_c0 |(Z x Z)|)) (and
  (|set.in Z| (fst _c0) s23)
  (|set.in Z| (snd _c0) s27)
  (>= (snd _c0) 0)
  (< (- s12 (fst _c0)) (snd _c0))))  (lambda ((_c0 |(Z x Z)|)) (- (snd _c0) (- s12 (fst _c0)))))))
  :named |Define:imlprp:3|))
(assert (!
  (= s43 (|rel.overwrite (Z x Z) Z| (|rel.overwrite (Z x Z) Z| (|rel.overwrite (Z x Z) Z| (|set.lambda (Z x Z) Z| (lambda ((_c0 |(Z x Z)|)) (and
  (|set.in Z| (fst _c0) s23)
  (|set.in Z| (snd _c0) s27)
  (>= (snd _c0) 0)
  (>= (- s12 (fst _c0)) (snd _c0))))  (lambda ((_c0 |(Z x Z)|)) (+ (fst _c0) (snd _c0)))) (|set.lambda (Z x Z) Z| (lambda ((_c0 |(Z x Z)|)) (and
  (|set.in Z| (fst _c0) s23)
  (|set.in Z| (snd _c0) s27)
  (>= (snd _c0) 0)
  (< (- s12 (fst _c0)) (snd _c0))))  (lambda ((_c0 |(Z x Z)|)) (- (snd _c0) (- s12 (fst _c0)))))) (|set.lambda (Z x Z) Z| (lambda ((_c0 |(Z x Z)|)) (and
  (|set.in Z| (fst _c0) s23)
  (|set.in Z| (snd _c0) s27)
  (< (snd _c0) 0)
  (>= (fst _c0) (- 0 (snd _c0)))))  (lambda ((_c0 |(Z x Z)|)) (+ (fst _c0) (snd _c0))))) (|set.lambda (Z x Z) Z| (lambda ((_c0 |(Z x Z)|)) (and
  (|set.in Z| (fst _c0) s23)
  (|set.in Z| (snd _c0) s27)
  (< (snd _c0) 0)
  (< (fst _c0) (- 0 (snd _c0)))))  (lambda ((_c0 |(Z x Z)|)) (+ s12 (+ (fst _c0) (snd _c0)))))))
  :named |Define:imlprp:4|))
(assert (!
  (= s44 (|set.lambda (Z x Z) POW Z| (lambda ((_c0 |(Z x Z)|)) (and
  (|set.in Z| (fst _c0) s23)
  (|set.in Z| (snd _c0) s27)))  (lambda ((_c0 |(Z x Z)|)) (|set.intent Z| (lambda ((_c1 |Z|)) (and
  (|set.in Z| _c1 s23)
  (or
    (and
      (>= (- (fst _c0) (snd _c0)) 0)
      (<= _c1 (fst _c0))
      (> _c1 (- (fst _c0) (snd _c0))))
    (and
      (< (- (fst _c0) (snd _c0)) 0)
      (or
        (<= _c1 (fst _c0))
        (> _c1 (- s12 (- (snd _c0) (fst _c0)))))))))))))
  :named |Define:imlprp:5|))
(assert (!
  (= s45 (|set.lambda (Z x Z) POW Z| (lambda ((_c0 |(Z x Z)|)) (and
  (|set.in Z| (fst _c0) s23)
  (|set.in Z| (snd _c0) s23)))  (lambda ((_c0 |(Z x Z)|)) (|set.intent Z| (lambda ((_c1 |Z|)) (and
  (|set.in Z| _c1 s23)
  (or
    (and
      (>= (- (snd _c0) (fst _c0)) 0)
      (<= _c1 (snd _c0))
      (>= _c1 (fst _c0)))
    (and
      (< (- (snd _c0) (fst _c0)) 0)
      (or
        (<= _c1 (snd _c0))
        (>= _c1 (fst _c0)))))))))))
  :named |Define:imlprp:6|))
(assert (!
  (= s46 (|set.lambda (Z x Z) POW Z| (lambda ((_c0 |(Z x Z)|)) (and
  (|set.in Z| (fst _c0) s23)
  (|set.in Z| (snd _c0) s23)))  (lambda ((_c0 |(Z x Z)|)) (|set.intent Z| (lambda ((_c1 |Z|)) (and
  (|set.in Z| _c1 s23)
  (or
    (and
      (>= (- (snd _c0) (fst _c0)) 0)
      (< _c1 (snd _c0))
      (> _c1 (fst _c0)))
    (and
      (< (- (snd _c0) (fst _c0)) 0)
      (or
        (< _c1 (snd _c0))
        (> _c1 (fst _c0)))))))))))
  :named |Define:imlprp:7|))
(assert (!
  (= s47 (|set.lambda (Z x Z) POW Z| (lambda ((_c0 |(Z x Z)|)) (and
  (|set.in Z| (fst _c0) s23)
  (|set.in Z| (snd _c0) s23)))  (lambda ((_c0 |(Z x Z)|)) (|set.intent Z| (lambda ((_c1 |Z|)) (and
  (|set.in Z| _c1 s23)
  (or
    (and
      (>= (- (snd _c0) (fst _c0)) 0)
      (<= _c1 (snd _c0))
      (> _c1 (fst _c0)))
    (and
      (< (- (snd _c0) (fst _c0)) 0)
      (or
        (<= _c1 (snd _c0))
        (> _c1 (fst _c0)))))))))))
  :named |Define:imlprp:8|))
(assert (!
  (= s48 (|set.lambda (Z x Z) POW Z| (lambda ((_c0 |(Z x Z)|)) (and
  (|set.in Z| (fst _c0) s23)
  (|set.in Z| (snd _c0) s23)))  (lambda ((_c0 |(Z x Z)|)) (|set.intent Z| (lambda ((_c1 |Z|)) (and
  (|set.in Z| _c1 s23)
  (or
    (and
      (>= (- (snd _c0) (fst _c0)) 0)
      (< _c1 (snd _c0))
      (>= _c1 (fst _c0)))
    (and
      (< (- (snd _c0) (fst _c0)) 0)
      (or
        (< _c1 (snd _c0))
        (>= _c1 (fst _c0)))))))))))
  :named |Define:imlprp:9|))
(assert (!
  (= s51 (|set.intent ((Z x Z) x Z)| (lambda ((_c0 |((Z x Z) x Z)|)) (and
  (|set.in Z| (fst (fst _c0)) s23)
  (|set.in Z| (snd (fst _c0)) s27)
  (|set.in Z| (snd _c0) s23)
  (or
    (and
      (= (snd (fst _c0)) 0)
      (|set.in (Z x Z)| (maplet (fst (fst _c0)) (snd _c0)) s49))
    (and
      (> (snd (fst _c0)) 0)
      (or
        (and
          (>= (- s12 (fst (fst _c0))) (snd (fst _c0)))
          (|set.in (Z x Z)| (maplet (+ (fst (fst _c0)) (snd (fst _c0))) (snd _c0)) s49))
        (and
          (< (- s12 (fst (fst _c0))) (snd (fst _c0)))
          (|set.in (Z x Z)| (maplet (- (snd (fst _c0)) (- s12 (fst (fst _c0)))) (snd _c0)) s49))))
    (and
      (< (snd (fst _c0)) 0)
      (or
        (and
          (>= (- s12 (snd _c0)) (- 0 (snd (fst _c0))))
          (|set.in (Z x Z)| (maplet (fst (fst _c0)) (+ (snd _c0) (- 0 (snd (fst _c0))))) s49))
        (and
          (< (- s12 (snd _c0)) (- 0 (snd (fst _c0))))
          (|set.in (Z x Z)| (maplet (fst (fst _c0)) (- (- 0 (snd (fst _c0))) (- s12 (snd _c0)))) s49)))))))))
  :named |Define:imlprp:10|))
(assert (!
  (= s52 (|set.intent ((Z x Z) x Z)| (lambda ((_c0 |((Z x Z) x Z)|)) (and
  (|set.in Z| (fst (fst _c0)) s23)
  (|set.in Z| (snd (fst _c0)) s27)
  (|set.in Z| (snd _c0) s23)
  (or
    (and
      (= (snd (fst _c0)) 0)
      (|set.in (Z x Z)| (maplet (fst (fst _c0)) (snd _c0)) s50))
    (and
      (> (snd (fst _c0)) 0)
      (or
        (and
          (>= (- s12 (fst (fst _c0))) (snd (fst _c0)))
          (|set.in (Z x Z)| (maplet (+ (fst (fst _c0)) (snd (fst _c0))) (snd _c0)) s50))
        (and
          (< (- s12 (fst (fst _c0))) (snd (fst _c0)))
          (|set.in (Z x Z)| (maplet (- (snd (fst _c0)) (- s12 (fst (fst _c0)))) (snd _c0)) s50))))
    (and
      (< (snd (fst _c0)) 0)
      (or
        (and
          (>= (- s12 (snd _c0)) (- 0 (snd (fst _c0))))
          (|set.in (Z x Z)| (maplet (fst (fst _c0)) (+ (snd _c0) (- 0 (snd (fst _c0))))) s50))
        (and
          (< (- s12 (snd _c0)) (- 0 (snd (fst _c0))))
          (|set.in (Z x Z)| (maplet (fst (fst _c0)) (- (- 0 (snd (fst _c0))) (- s12 (snd _c0)))) s50)))))))))
  :named |Define:imlprp:11|))
(assert (!
  (= s53 (|set.intent ((Z x Z) x Z)| (lambda ((_c0 |((Z x Z) x Z)|)) (and
  (|set.in Z| (fst (fst _c0)) s23)
  (|set.in Z| (snd (fst _c0)) s27)
  (|set.in Z| (snd _c0) s23)
  (or
    (and
      (= (snd (fst _c0)) 0)
      (|set.in (Z x Z)| (maplet (fst (fst _c0)) (snd _c0)) s49))
    (and
      (> (snd (fst _c0)) 0)
      (or
        (and
          (>= (- s12 (snd _c0)) (snd (fst _c0)))
          (|set.in (Z x Z)| (maplet (fst (fst _c0)) (+ (snd _c0) (snd (fst _c0)))) s49))
        (and
          (< (- s12 (snd _c0)) (snd (fst _c0)))
          (|set.in (Z x Z)| (maplet (fst (fst _c0)) (- (snd (fst _c0)) (- s12 (snd _c0)))) s49))))
    (and
      (< (snd (fst _c0)) 0)
      (or
        (and
          (>= (- s12 (fst (fst _c0))) (- 0 (snd (fst _c0))))
          (|set.in (Z x Z)| (maplet (+ (fst (fst _c0)) (- 0 (snd (fst _c0)))) (snd _c0)) s49))
        (and
          (< (- s12 (fst (fst _c0))) (- 0 (snd (fst _c0))))
          (|set.in (Z x Z)| (maplet (- (- 0 (snd (fst _c0))) (- s12 (fst (fst _c0)))) (snd _c0)) s49)))))))))
  :named |Define:imlprp:12|))
(assert (!
  (= s54 (|set.intent ((Z x Z) x Z)| (lambda ((_c0 |((Z x Z) x Z)|)) (and
  (|set.in Z| (fst (fst _c0)) s23)
  (|set.in Z| (snd (fst _c0)) s27)
  (|set.in Z| (snd _c0) s23)
  (or
    (and
      (= (snd (fst _c0)) 0)
      (|set.in (Z x Z)| (maplet (fst (fst _c0)) (snd _c0)) s50))
    (and
      (> (snd (fst _c0)) 0)
      (or
        (and
          (>= (- s12 (snd _c0)) (snd (fst _c0)))
          (|set.in (Z x Z)| (maplet (fst (fst _c0)) (+ (snd _c0) (snd (fst _c0)))) s50))
        (and
          (< (- s12 (snd _c0)) (snd (fst _c0)))
          (|set.in (Z x Z)| (maplet (fst (fst _c0)) (- (snd (fst _c0)) (- s12 (snd _c0)))) s50))))
    (and
      (< (snd (fst _c0)) 0)
      (or
        (and
          (>= (- s12 (fst (fst _c0))) (- 0 (snd (fst _c0))))
          (|set.in (Z x Z)| (maplet (+ (fst (fst _c0)) (- 0 (snd (fst _c0)))) (snd _c0)) s50))
        (and
          (< (- s12 (fst (fst _c0))) (- 0 (snd (fst _c0))))
          (|set.in (Z x Z)| (maplet (- (- 0 (snd (fst _c0))) (- s12 (fst (fst _c0)))) (snd _c0)) s50)))))))))
  :named |Define:imlprp:13|))
(assert (!
  (|set.in POW (Z x Z)| s49 (|relations Z Z| s23 s23))
  :named |Define:imprp:0|))
(assert (!
  (|set.in POW (Z x Z)| s50 (|relations Z Z| s23 s23))
  :named |Define:imprp:1|))
(assert (!
  (|set.in Z| s57$1 s22)
  :named |Define:inv:2|))
(assert (!
  (|set.in Z| s58$1 s22)
  :named |Define:inv:3|))
(assert (!
  (|set.in Z| s12 NAT1)
  :named |Define:ctx:12|))
(assert (!
  (= s12 MAXINT)
  :named |Define:ctx:13|))
(assert (!
  (= s24 NAT1)
  :named |Define:ctx:27|))
(assert (!
  (not
  (|set.in Z| s25 s24))
  :named |Define:ctx:32|))
(assert (!
  (= s27 INT)
  :named |Define:ctx:35|))
(assert (!
  (|set.in POW ((Z x Z) x Z)| s37 (|functions.partial (Z x Z) Z| (|set.product Z Z| s27 s27) s27))
  :named |Define:aprp:0|))
(assert (!
  (= (|rel.domain (Z x Z) Z| s37) (|set.intent (Z x Z)| (lambda ((_c0 |(Z x Z)|)) (and
  (|set.in Z| (fst _c0) s27)
  (|set.in Z| (snd _c0) s27)
  (>= (snd _c0) 0)))))
  :named |Define:aprp:1|))
(assert (!
  (|set.subseteq Z| s40 s27)
  :named |Define:aprp:2|))
(assert (!
  (= s37 (|rel.overwrite (Z x Z) Z| (|set.lambda (Z x Z) Z| (lambda ((_c0 |(Z x Z)|)) (and
  (|set.in Z| (fst _c0) s27)
  (|set.in Z| (snd _c0) s27)
  (>= (snd _c0) 0)
  (>= (- s12 (fst _c0)) (snd _c0))))  (lambda ((_c0 |(Z x Z)|)) (+ (fst _c0) (snd _c0)))) (|set.lambda (Z x Z) Z| (lambda ((_c0 |(Z x Z)|)) (and
  (|set.in Z| (fst _c0) s27)
  (|set.in Z| (snd _c0) s27)
  (>= (snd _c0) 0)
  (< (- s12 (fst _c0)) (snd _c0))))  (lambda ((_c0 |(Z x Z)|)) s12))))
  :named |Define:imlprp:0|))
(assert (!
  (= s40 (|set.intent Z| (lambda ((_c0 |Z|)) (and
  (|set.in Z| _c0 s27)
  (> _c0 s13)))))
  :named |Define:imlprp:1|))
(assert (!
  (|set.in Z| s55$1 s27)
  :named |Define:inv:0|))
(assert (!
  (|set.in Z| s56$1 s27)
  :named |Define:inv:1|))
(assert (!
  (|set.in Z| s13 NAT1)
  :named |Define:ctx:14|))
(assert (!
  (not
    (not
      (|set.in Z| s90 (|fun.eval (Z x Z) POW Z| s47 (maplet s88 s89)))))
  :named |Goal|))
(check-sat)
(exit)
